
Gurobi 12.0.2 (linux64, Java) logging started Mi 14 Mai 2025 13:29:14 CEST

Set parameter LogFile to value "mip1.log"

Gurobi 12.0.2 (linux64, Java) logging started Mi 14 Mai 2025 13:39:18 CEST

Set parameter LogFile to value "mip1.log"

Gurobi 12.0.2 (linux64, Java) logging started Mi 14 Mai 2025 13:41:59 CEST

Set parameter LogFile to value "mip1.log"

Gurobi 12.0.2 (linux64, Java) logging started Mi 14 Mai 2025 13:44:20 CEST

Set parameter LogFile to value "mip1.log"

Gurobi 12.0.2 (linux64, Java) logging started Mi 14 Mai 2025 13:45:47 CEST

Set parameter LogFile to value "mip1.log"

Gurobi 12.0.2 (linux64, Java) logging started Mi 14 Mai 2025 13:48:51 CEST

Set parameter LogFile to value "mip1.log"

Gurobi 12.0.2 (linux64, Java) logging started Mi 14 Mai 2025 13:53:39 CEST

Set parameter LogFile to value "mip1.log"

Gurobi 12.0.2 (linux64, Java) logging started Mi 14 Mai 2025 14:00:08 CEST

Set parameter LogFile to value "mip1.log"

Gurobi 12.0.2 (linux64, Java) logging started Mi 14 Mai 2025 14:05:20 CEST

Set parameter LogFile to value "mip1.log"

Gurobi 12.0.2 (linux64, Java) logging started Mi 14 Mai 2025 14:09:41 CEST

Set parameter LogFile to value "mip1.log"
